column=9;
row=9;
Board=[|2,0,0,0,0,0,2,0,0|6,0,0,0,0,0,0,0,3|0,0,0,0,3,0,6,0,0|0,0,2,0,0,0,3,0,1|0,0,0,0,0,0,0,0,0|0,0,0,0,0,0,0,0,0|0,0,0,0,0,0,0,0,0|0,0,0,0,0,0,0,0,0|0,0,0,0,0,0,0,0,0|];
Lighthouse=[|-1,-1,-1,-1,-1,-1,-1,-1,-1|-1,-1,-1,-1,-1,-1,-1,-1,-1|-1,-1,-1,-1,-1,-1,-1,-1,-1|-1,-1,-1,-1,-1,-1,-1,-1,-1|-1,-1,-1,-1,-1,-1,-1,-1,-1|-1,-1,-1,-1,-1,-1,-1,-1,6|-1,-1,4,-1,-1,-1,-1,-1,-1|4,-1,-1,-1,4,-1,-1,-1,-1|4,0,-1,-1,-1,-1,5,0,3|];
